molecule {
    #polar
    0 1
    C                  0.00000000    0.00000000   -0.61555600
    H                  0.00000000    1.00880600   -0.97222200
    H                 -0.87365100   -0.50440300   -0.97222200
    H                  0.87365100   -0.50440300   -0.97222200
    F                  0.00000000    0.00000000    0.73444400
