molecule {
    0 1
    C                  0.00000000    0.00000000    0.00000000
    H                  0.61776500    0.61776500    0.61776500
    H                 -0.61776500   -0.61776500    0.61776500
    H                 -0.61776500    0.61776500   -0.61776500
    H                  0.61776500   -0.61776500   -0.61776500
