molecule {
    0 1
    Cl                 0.00000000    0.00000000    0.99000007
    Cl                 0.00000000    0.00000000   -0.99000007
