molecule {
    0 1
    F                  0.00000000    0.00000000    0.58000000
    F                 -0.00000000    0.00000000   -0.58000000
