molecule {
    #polar
    0 1
    O                  0.00000000    0.00000000    0.11081200
    H                  0.00000000    0.78397600   -0.44324800
    H                  0.00000000   -0.78397600   -0.44324800
