molecule {
    #polar
    0 1
    Cl                 0.00000000    0.00000000    0.07166700
    H                  0.00000000    0.00000000   -1.21833300
