molecule {
    #polar
    0 1
    F                  0.00000000    0.00000000    0.08800000
    H                  0.00000000    0.00000000   -0.79200000
